(set-logic QF_S)
(set-option :parse-transducers true)
(set-option :produce-models true)
(define-fun-rec toLower ((x String) (y String)) Bool
   (or (and (= x "") (= y ""))
       (and (not (= x "")) (not (= y ""))
           (= (char.code (str.head y))
               (ite (and (<= 65 (char.code (str.head x)))
                       (<= (char.code (str.head x)) 90))
                   (+ (char.code (str.head x)) 32)
                   (char.code (str.head x))))
           (toLower (str.tail x) (str.tail y))))
)
(declare-fun sym5050 () String)
(declare-fun sym205 () String)
(declare-fun sym547 () String)
(declare-fun sym1669 () String)
(declare-fun sym2318 () String)
(declare-fun sym1886 () String)
(declare-fun sym1028 () String)
(declare-fun sym3789 () String)
(declare-fun sym4211 () String)
(declare-fun sym5463 () String)
(declare-fun sym161 () String)
(declare-fun sym812 () String)
(declare-fun sym2726 () String)
(declare-fun sym1237 () String)
(declare-fun sym2943 () String)
(declare-fun sym4427 () String)
(declare-fun sym4844 () String)
(declare-fun sym3577 () String)
(declare-fun sym1453 () String)
(declare-fun sym2520 () String)
(declare-fun sym2102 () String)
(declare-fun sym4005 () String)
(declare-fun sym3159 () String)
(declare-fun sym4642 () String)
(declare-fun sym5257 () String)
(declare-fun sym3375 () String)
(declare-fun L27  () String)
(declare-fun L49  () String)
(declare-fun L17  () String)
(declare-fun L29  () String)
(declare-fun L19  () String)
(declare-fun L13  () String)
(declare-fun L35  () String)
(declare-fun L9  () String)
(declare-fun L37  () String)
(declare-fun L7  () String)
(declare-fun L31  () String)
(declare-fun L5  () String)
(declare-fun L3  () String)
(declare-fun L1  () String)
(declare-fun L12  () String)
(declare-fun L34  () String)
(declare-fun L14  () String)
(declare-fun L30  () String)
(declare-fun L74  () String)
(declare-fun L8  () String)
(declare-fun L32  () String)
(declare-fun L6  () String)
(declare-fun L4  () String)
(declare-fun L2  () String)
(declare-fun L0  () String)
(assert (toLower (str.substr sym4005  0 1) L0 ))
(assert (toLower (str.substr sym3577  0 1) L2 ))
(assert (toLower (str.substr sym4642  0 1) L4 ))
(assert (toLower (str.substr sym5050  0 1) L6 ))
(assert (toLower (str.substr sym3159  0 1) L32 ))
(assert (toLower (str.substr sym2520  0 1) L8 ))
(assert (toLower (str.substr sym205  0 1) L74 ))
(assert (toLower (str.substr sym5463  0 1) L30 ))
(assert (toLower (str.substr sym1028  0 1) L14 ))
(assert (toLower (str.substr sym547  0 1) L34 ))
(assert (toLower (str.substr sym2726  0 1) L12 ))
(assert (toLower (str.substr sym5257  0 1) L1 ))
(assert (toLower (str.substr sym1669  0 1) L3 ))
(assert (toLower (str.substr sym1237  0 1) L5 ))
(assert (toLower (str.substr sym812  0 1) L31 ))
(assert (toLower (str.substr sym1453  0 1) L7 ))
(assert (toLower (str.substr sym2318  0 1) L37 ))
(assert (toLower (str.substr sym2943  0 1) L9 ))
(assert (toLower (str.substr sym3375  0 1) L35 ))
(assert (toLower (str.substr sym3789  0 1) L13 ))
(assert (toLower (str.substr sym4427  0 1) L19 ))
(assert (toLower (str.substr sym2102  0 1) L29 ))
(assert (toLower (str.substr sym4844  0 1) L17 ))
(assert (toLower (str.substr sym4211  0 1) L49 ))
(assert (toLower (str.substr sym1886  0 1) L27 ))

(assert (not (= L0 "p" )))
(assert (not (= "" sym5257 )))
(assert (not (= L1 "k" )))
(assert (not (= "" sym3577 )))
(assert (not (= L2 "r" )))
(assert (not (= "" sym1886 )))
(assert (not (= "" sym4844 )))
(assert (not (= L3 "q" )))
(assert (not (= L4 "q" )))
(assert (not (= L5 "q" )))
(assert (not (= "" sym4005 )))
(assert (not (= L6 "k" )))
(assert (not (= L7 "q" )))
(assert (= L8 "g" ))
(assert (= L9 "g" ))
(assert (= L3 "g" ))
(assert (not (= L9 "k" )))
(assert (not (= L12 "k" )))
(assert (= L13 "g" ))
(assert (not (= "" sym2520 )))
(assert (not (= L14 "q" )))
(assert (not (= L13 "q" )))
(assert (= L4 "g" ))
(assert (not (= L17 "q" )))
(assert (not (= L6 "q" )))
(assert (= L19 "h" ))
(assert (= L17 "g" ))
(assert (= L7 "g" ))
(assert (not (= L4 "k" )))
(assert (= L0 "g" ))
(assert (not (= "" "q" )))
(assert (not (= L19 "g" )))
(assert (not (= L19 "k" )))
(assert (not (= L2 "q" )))
(assert (not (= "" sym1237 )))
(assert (= "y" "y" ))
(assert (not (= L27 "p" )))
(assert (not (= "" sym3375 )))
(assert (not (= "" sym4427 )))
(assert (not (= L17 "p" )))
(assert (not (= L29 "q" )))
(assert (not (= L30 "q" )))
(assert (not (= "y" "n" )))
(assert (not (= L31 "p" )))
(assert (= "" "" ))
(assert (not (= L32 "k" )))
(assert (not (= L14 "p" )))
(assert (= L34 "g" ))
(assert (not (= "" sym5463 )))
(assert (not (= L35 "q" )))
(assert (not (= "" sym547 )))
(assert (not (= "" sym2318 )))
(assert (not (= L12 "p" )))
(assert (not (= L37 "p" )))
(assert (not (= L8 "q" )))
(assert (not (= "" sym1453 )))
(assert (not (= "" sym161 )))
(assert (not (= L1 "q" )))
(assert (not (= "" sym1028 )))
(assert (not (= L2 "p" )))
(assert (not (= L13 "p" )))
(assert (not (= L34 "q" )))
(assert (not (= L2 "k" )))
(assert (= L29 "g" ))
(assert (not (= L27 "r" )))
(assert (not (= L12 "q" )))
(assert (not (= "" sym1669 )))
(assert (not (= L5 "k" )))
(assert (not (= L34 "k" )))
(assert (not (= L49 "k" )))
(assert (not (= L0 "q" )))
(assert (not (= L34 "p" )))
(assert (not (= L14 "k" )))
(assert (not (= L1 "p" )))
(assert (not (= L27 "q" )))
(assert (not (= L30 "g" )))
(assert (not (= "" sym2726 )))
(assert (not (= L29 "p" )))
(assert (not (= "" sym2943 )))
(assert (= L5 "g" ))
(assert (not (= L8 "p" )))
(assert (= L12 "h" ))
(assert (not (= L27 "g" )))
(assert (not (= L30 "p" )))
(assert (not (= "" sym5050 )))
(assert (not (= L1 "g" )))
(assert (not (= "" sym205 )))
(assert (not (= "" sym3789 )))
(assert (= L37 "g" ))
(assert (not (= L5 "p" )))
(assert (not (= "" sym2102 )))
(assert (= L35 "g" ))
(assert (= L49 "g" ))
(assert (not (= L31 "q" )))
(assert (not (= L0 "k" )))
(assert (not (= L35 "k" )))
(assert (= L6 "g" ))
(assert (= L31 "g" ))
(assert (not (= L19 "q" )))
(assert (not (= "" "y" )))
(assert (not (= L8 "k" )))
(assert (= L74 "y" ))
(assert (not (= L37 "q" )))
(assert (= L14 "g" ))
(assert (not (= L49 "p" )))
(assert (not (= L1 "r" )))
(assert (not (= L37 "k" )))
(assert (not (= L4 "p" )))
(assert (not (= L7 "p" )))
(assert (= L30 "l" ))
(assert (not (= L32 "q" )))
(assert (not (= L2 "g" )))
(assert (= L2 "l" ))
(assert (not (= "" sym812 )))
(assert (not (= L30 "k" )))
(assert (not (= L9 "q" )))
(assert (not (= L12 "r" )))
(assert (not (= "" sym4211 )))
(assert (not (= L7 "k" )))
(assert (not (= L19 "r" )))
(assert (not (= L32 "p" )))
(assert (not (= L12 "g" )))
(assert (not (= L49 "q" )))
(assert (not (= L6 "p" )))
(assert (not (= "" "y" )))
(assert (not (= L9 "p" )))
(assert (not (= L3 "p" )))
(assert (= L1 "l" ))
(assert (not (= L17 "k" )))
(assert (not (= "" sym3159 )))
(assert (not (= L12 "l" )))
(assert (not (= "" L74 )))
(assert (= L32 "g" ))
(assert (not (= L35 "p" )))
(assert (not (= L31 "k" )))
(assert (not (= L30 "r" )))
(assert (not (= L29 "k" )))
(assert (not (= L19 "l" )))
(assert (not (= L27 "k" )))
(assert (not (= "" sym4642 )))
(assert (not (= L3 "k" )))
(assert (= L27 "l" ))
(assert (not (= L13 "k" )))
(assert (not (= L19 "p" )))
(check-sat)
(get-model)
(exit)
